--- Job 1C.gms Start 12/31/21 15:27:54 37.1.0 r07954d5 WEX-WEI x86 64bit/MS Windows
--- Applying:
    C:\GAMS\37\gmsprmNT.txt
--- GAMS Parameters defined
    Input C:\Users\fatma\Desktop\assignment_2019402204\1C.gms
    PageSize 0
    ScrDir C:\Users\fatma\Desktop\assignment_2019402204\225a\
    SysDir C:\GAMS\37\
    LogOption 3
    ErrMsg 1
    ErrorLog 99
    IDE 1
    LstTitleLeftAligned 1
Licensee: GAMS Demo license for FATMANUR YAMAN           G211230|0002CO-GEN
          BOGAZICI UNIVERSITY, Turkey                              DL057000
          C:\Users\fatma\Documents\GAMS\gamslice.txt
          fatmanur.yaman@boun.edu.tr, FATMANUR YAMAN                       
          Demo license for demonstration and instructional purposes only
Processor information: 1 socket(s), 6 core(s), and 12 thread(s) available
GAMS 37.1.0   Copyright (C) 1987-2021 GAMS Development. All rights reserved
--- Starting compilation
--- 1C.gms(49) 3 Mb
--- Starting execution: elapsed 0:00:00.013
--- 1C.gms(46) 4 Mb
--- Generating MIP model question
--- 1C.gms(47) 4 Mb
---   11 rows  25 columns  69 non-zeroes
--- Executing CPLEX (Solvelink=2): elapsed 0:00:00.022

IBM ILOG CPLEX   37.1.0 r07954d5 Released Nov 11, 2021 WEI x86 64bit/MS Window

--- *** This solver runs with a demo license. No commercial use.

Reading parameter(s) from "C:\Users\fatma\Desktop\assignment_2019402204\cplex.opt"
>>  objrng all
>>  rhsrng all
Finished reading from "C:\Users\fatma\Desktop\assignment_2019402204\cplex.opt"

--- GMO setup time: 0.00s
--- GMO memory 0.50 Mb (peak 0.50 Mb)
--- Dictionary memory 0.00 Mb
--- Cplex 20.1.0.1 link memory 0.00 Mb (peak 0.00 Mb)
--- Starting Cplex

Version identifier: 20.1.0.1 | 2021-04-07 | 3a818710c
CPXPARAM_Advance                                 0
CPXPARAM_Simplex_Display                         2
CPXPARAM_Threads                                 1
CPXPARAM_MIP_Display                             4
CPXPARAM_MIP_Pool_Capacity                       0
CPXPARAM_MIP_Tolerances_AbsMIPGap                0
Tried aggregator 1 time.
LP Presolve eliminated 0 rows and 1 columns.
Reduced LP has 10 rows, 24 columns, and 48 nonzeros.
Presolve time = 0.00 sec. (0.01 ticks)
Initializing dual steep norms . . .

Iteration      Dual Objective            In Variable           Out Variable
     1            1750.000000               x(P3,D5)       demand(D5) slack
     2            2950.000000               x(P3,D2)       demand(D2) slack
     3            4030.000000               x(P2,D1)       demand(D1) slack
     4            5070.000000               x(P3,D3)       demand(D3) slack
     5            5285.000000               x(P2,D2)            x(P3,Dummy)
     6            6055.000000               x(P1,D4)       demand(D4) slack
     7            6055.000000               x(P2,D3)               x(P3,D2)
     8            6055.000000               x(P4,D5)            x(P2,Dummy)

--- LP status (1): optimal.
--- Cplex Time: 0.00sec (det. 0.03 ticks)

--- Start ranging / sensitivity analysis...
--- Right-hand-side ranging...

EQUATION NAME                            LOWER           CURRENT             UPPER
-------------                            -----           -------             -----
cost                                      -INF                NA              +INF   
supply(P1)                                 290               290              +INF   
supply(P2)                                 400               400               540   
supply(P3)                                 180               180               390   
supply(P4)                                 280               280              +INF   
demand(D1)                                  40               180               180   
demand(D2)                                  60               200               200   
demand(D3)                                  20               160               160   
demand(D4)                                   0               140               140   
demand(D5)                                  40               250               250   
demand(Dummy)                             -INF               220               220   

--- Objective ranging...

VARIABLE NAME                            LOWER           CURRENT             UPPER
-------------                            -----           -------             -----
x(P1.D1)                                     6               7.5              +INF   
x(P1.D2)                                   6.5                 7              +INF   
x(P1.D3)                                     7                 8              +INF   
x(P1.D4)                                     0               5.5                 6   
x(P1.D5)                                   7.5                 8              +INF   
x(P1.Dummy)                               -0.5                 0                 0   
x(P2.D1)                                     0                 6               7.5   
x(P2.D2)                                     0               6.5               6.5   
x(P2.D3)                                     7                 7                 7   
x(P2.D4)                                   5.5               7.5              +INF   
x(P2.D5)                                   7.5                 8              +INF   
x(P2.Dummy)                                  0                 0              +INF   
x(P3.D1)                                   5.5                11              +INF   
x(P3.D2)                                     6                 6              +INF   
x(P3.D3)                                   6.5               6.5               6.5   
x(P3.D4)                                     5                 7              +INF   
x(P3.D5)                                   6.5                 7                 7   
x(P3.Dummy)                               -0.5                 0              +INF   
x(P4.D1)                                     6                 9              +INF   
x(P4.D2)                                   6.5                 7              +INF   
x(P4.D3)                                     7                10              +INF   
x(P4.D4)                                   5.5                 6              +INF   
x(P4.D5)                                   7.5               7.5                 8   
x(P4.Dummy)                               -0.5                 0                 0   
z                                         -INF                NA              +INF   


Optimal solution found
Objective:         6055.000000

--- Reading solution for model question
--- Executing after solve: elapsed 0:00:00.149
--- 1C.gms(48) 4 Mb
*** Status: Normal completion
--- Job 1C.gms Stop 12/31/21 15:27:54 elapsed 0:00:00.150
